51
100
80	1
79	3
77	3
76	2
75	3
74	2
72	1
71	1
70	1
69	2
68	2
67	1
66	2
65	2
64	1
63	4
61	1
60	1
59	1
58	1
57	3
54	3
53	3
51	1
50	4
49	1
48	1
47	1
46	2
44	2
43	2
41	1
40	2
39	1
38	5
37	2
36	2
34	1
32	2
31	4
30	1
29	3
28	2
27	1
26	1
25	2
24	5
23	3
22	1
21	2
20	1
